26 4
38 100 81 34 63 64 67 18 54 55 61 66 16 44 86 51 97 63 60 86 24 13 94 40 48 91
37 70 37 47 74 59 98 41 64 15 17 59 41 31 87 55 74 58 71 42 92 40 84 72 55 12
41 70 13 28 42 25 11 64 37 34 86 81 62 63 28 13 73 40 63 67 40 91 91 12 63 48
73 52 19 37 96 80 35 30 34 10 21 56 57 52 79 23 66 15 26 53 99 97 77 99 46 55
